(set-logic QF_S)
(declare-fun var0 () String)
(assert (RegexIn var0 (RegexConcat (RegexUnion (RegexStar (RegexUnion (RegexUnion (RegexUnion (RegexStar (RegexPlus (RegexPlus (RegexPlus (RegexPlus (RegexUnion (Str2Reg "0") (Str2Reg "111"))))))) (RegexStar (RegexStar (RegexUnion (RegexStar (RegexUnion (RegexStar (Str2Reg "222")) (RegexStar (Str2Reg "333")))) (RegexStar (RegexStar (RegexStar (Str2Reg "444")))))))) (RegexUnion (RegexUnion (RegexPlus (RegexStar (RegexStar (RegexStar (RegexUnion (Str2Reg "555") (Str2Reg "66")))))) (RegexPlus (RegexStar (RegexPlus (RegexStar (RegexUnion (Str2Reg "77") (Str2Reg "888"))))))) (RegexUnion (RegexUnion (RegexUnion (RegexStar (RegexUnion (RegexPlus (Str2Reg "999")) (RegexPlus (Str2Reg "aaa")))) (RegexStar (RegexUnion (RegexStar (Str2Reg "bbb")) (RegexStar (Str2Reg "cc"))))) (RegexUnion (RegexStar (RegexUnion (RegexStar (Str2Reg "dd")) (RegexStar (Str2Reg "ee")))) (RegexStar (RegexPlus (RegexStar (Str2Reg "ff")))))) (RegexUnion (RegexStar (RegexStar (RegexStar (RegexPlus (Str2Reg "gg"))))) (RegexStar (RegexPlus (RegexStar (RegexStar (Str2Reg "hhh"))))))))) (RegexUnion (RegexUnion (RegexStar (RegexUnion (RegexPlus (RegexUnion (RegexStar (RegexStar (Str2Reg "ii"))) (RegexStar (RegexUnion (Str2Reg "jj") (Str2Reg "kkk"))))) (RegexPlus (RegexStar (RegexStar (RegexStar (Str2Reg "l"))))))) (RegexStar (RegexPlus (RegexStar (RegexUnion (RegexUnion (RegexPlus (Str2Reg "mm")) (RegexPlus (Str2Reg "n"))) (RegexUnion (RegexUnion (Str2Reg "o") (Str2Reg "ppp")) (RegexUnion (Str2Reg "qqq") (Str2Reg "rrr")))))))) (RegexUnion (RegexStar (RegexStar (RegexPlus (RegexPlus (RegexPlus (RegexStar (Str2Reg "ss"))))))) (RegexStar (RegexStar (RegexUnion (RegexPlus (RegexPlus (RegexUnion (Str2Reg "t") (Str2Reg "uu")))) (RegexPlus (RegexStar (RegexUnion (Str2Reg "vvv") (Str2Reg "ww"))))))))))) (RegexStar (RegexStar (RegexUnion (RegexStar (RegexStar (RegexPlus (RegexUnion (RegexPlus (RegexStar (RegexUnion (Str2Reg "xx") (Str2Reg "yy")))) (RegexPlus (RegexUnion (RegexPlus (Str2Reg "zz")) (RegexPlus (Str2Reg "AAA")))))))) (RegexStar (RegexUnion (RegexUnion (RegexStar (RegexUnion (RegexStar (RegexUnion (Str2Reg "BB") (Str2Reg "C"))) (RegexStar (RegexPlus (Str2Reg "D"))))) (RegexStar (RegexPlus (RegexUnion (RegexUnion (Str2Reg "E") (Str2Reg "F")) (RegexUnion (Str2Reg "G") (Str2Reg "HH")))))) (RegexUnion (RegexUnion (RegexUnion (RegexPlus (RegexUnion (Str2Reg "II") (Str2Reg "JJ"))) (RegexPlus (RegexUnion (Str2Reg "K") (Str2Reg "LL")))) (RegexUnion (RegexPlus (RegexPlus (Str2Reg "MMM"))) (RegexPlus (RegexStar (Str2Reg "NN"))))) (RegexUnion (RegexPlus (RegexUnion (RegexStar (Str2Reg "OOO")) (RegexStar (Str2Reg "PP")))) (RegexPlus (RegexStar (RegexPlus (Str2Reg "QQQ")))))))))))) (RegexStar (RegexUnion (RegexPlus (RegexStar (RegexUnion (RegexPlus (RegexPlus (RegexStar (RegexStar (RegexStar (RegexUnion (Str2Reg "RRR") (Str2Reg "SS"))))))) (RegexPlus (RegexUnion (RegexPlus (RegexPlus (RegexUnion (RegexPlus (Str2Reg "TTT")) (RegexPlus (Str2Reg "UUU"))))) (RegexPlus (RegexUnion (RegexPlus (RegexPlus (Str2Reg "VV"))) (RegexPlus (RegexPlus (Str2Reg "W")))))))))) (RegexPlus (RegexPlus (RegexPlus (RegexStar (RegexPlus (RegexUnion (RegexStar (RegexStar (RegexPlus (Str2Reg "XX")))) (RegexStar (RegexStar (RegexStar (Str2Reg "Y")))))))))))))))
(assert (<= 15 (Length var0)))
(check-sat)